p cnf 84 2029
1 0
2 0
-29 0
3 0
-30 0
4 0
-31 0
5 0
-32 0
6 0
-33 0
7 0
-34 0
1 8 -2 0
2 29 -8 0
2 -1 -8 0
8 -2 -29 0
1 29 -2 0
1 29 -8 0
2 -1 -29 0
8 -1 -29 0
1 9 -3 0
3 30 -9 0
3 -1 -9 0
9 -3 -30 0
1 30 -3 0
1 30 -9 0
3 -1 -30 0
9 -1 -30 0
1 10 -4 0
4 31 -10 0
4 -1 -10 0
10 -4 -31 0
1 31 -4 0
1 31 -10 0
4 -1 -31 0
10 -1 -31 0
1 11 -5 0
5 32 -11 0
5 -1 -11 0
11 -5 -32 0
1 32 -5 0
1 32 -11 0
5 -1 -32 0
11 -1 -32 0
1 12 -6 0
6 33 -12 0
6 -1 -12 0
12 -6 -33 0
1 33 -6 0
1 33 -12 0
6 -1 -33 0
12 -1 -33 0
1 13 -7 0
7 34 -13 0
7 -1 -13 0
13 -7 -34 0
1 34 -7 0
1 34 -13 0
7 -1 -34 0
13 -1 -34 0
2 14 -3 0
3 35 -14 0
3 -2 -14 0
14 -3 -35 0
2 35 -3 0
2 35 -14 0
3 -2 -35 0
14 -2 -35 0
2 15 -4 0
4 36 -15 0
4 -2 -15 0
15 -4 -36 0
2 36 -4 0
2 36 -15 0
4 -2 -36 0
15 -2 -36 0
2 16 -5 0
5 37 -16 0
5 -2 -16 0
16 -5 -37 0
2 37 -5 0
2 37 -16 0
5 -2 -37 0
16 -2 -37 0
2 17 -6 0
6 38 -17 0
6 -2 -17 0
17 -6 -38 0
2 38 -6 0
2 38 -17 0
6 -2 -38 0
17 -2 -38 0
2 18 -7 0
7 39 -18 0
7 -2 -18 0
18 -7 -39 0
2 39 -7 0
2 39 -18 0
7 -2 -39 0
18 -2 -39 0
3 19 -4 0
4 40 -19 0
4 -3 -19 0
19 -4 -40 0
3 40 -4 0
3 40 -19 0
4 -3 -40 0
19 -3 -40 0
3 20 -5 0
5 41 -20 0
5 -3 -20 0
20 -5 -41 0
3 41 -5 0
3 41 -20 0
5 -3 -41 0
20 -3 -41 0
3 21 -6 0
6 42 -21 0
6 -3 -21 0
21 -6 -42 0
3 42 -6 0
3 42 -21 0
6 -3 -42 0
21 -3 -42 0
3 22 -7 0
7 43 -22 0
7 -3 -22 0
22 -7 -43 0
3 43 -7 0
3 43 -22 0
7 -3 -43 0
22 -3 -43 0
4 23 -5 0
5 44 -23 0
5 -4 -23 0
23 -5 -44 0
4 44 -5 0
4 44 -23 0
5 -4 -44 0
23 -4 -44 0
4 24 -6 0
6 45 -24 0
6 -4 -24 0
24 -6 -45 0
4 45 -6 0
4 45 -24 0
6 -4 -45 0
24 -4 -45 0
4 25 -7 0
7 46 -25 0
7 -4 -25 0
25 -7 -46 0
4 46 -7 0
4 46 -25 0
7 -4 -46 0
25 -4 -46 0
5 26 -6 0
6 47 -26 0
6 -5 -26 0
26 -6 -47 0
5 47 -6 0
5 47 -26 0
6 -5 -47 0
26 -5 -47 0
5 27 -7 0
7 48 -27 0
7 -5 -27 0
27 -7 -48 0
5 48 -7 0
5 48 -27 0
7 -5 -48 0
27 -5 -48 0
6 28 -7 0
7 49 -28 0
7 -6 -28 0
28 -7 -49 0
6 49 -7 0
6 49 -28 0
7 -6 -49 0
28 -6 -49 0
8 14 -9 0
9 50 -14 0
9 -8 -14 0
14 -9 -50 0
8 50 -9 0
8 50 -14 0
9 -8 -50 0
14 -8 -50 0
8 15 -10 0
10 51 -15 0
10 -8 -15 0
15 -10 -51 0
8 51 -10 0
8 51 -15 0
10 -8 -51 0
15 -8 -51 0
8 16 -11 0
11 52 -16 0
11 -8 -16 0
16 -11 -52 0
8 52 -11 0
8 52 -16 0
11 -8 -52 0
16 -8 -52 0
8 17 -12 0
12 53 -17 0
12 -8 -17 0
17 -12 -53 0
8 53 -12 0
8 53 -17 0
12 -8 -53 0
17 -8 -53 0
8 18 -13 0
13 54 -18 0
13 -8 -18 0
18 -13 -54 0
8 54 -13 0
8 54 -18 0
13 -8 -54 0
18 -8 -54 0
9 19 -10 0
10 55 -19 0
10 -9 -19 0
19 -10 -55 0
9 55 -10 0
9 55 -19 0
10 -9 -55 0
19 -9 -55 0
9 20 -11 0
11 56 -20 0
11 -9 -20 0
20 -11 -56 0
9 56 -11 0
9 56 -20 0
11 -9 -56 0
20 -9 -56 0
9 21 -12 0
12 57 -21 0
12 -9 -21 0
21 -12 -57 0
9 57 -12 0
9 57 -21 0
12 -9 -57 0
21 -9 -57 0
9 22 -13 0
13 58 -22 0
13 -9 -22 0
22 -13 -58 0
9 58 -13 0
9 58 -22 0
13 -9 -58 0
22 -9 -58 0
10 23 -11 0
11 59 -23 0
11 -10 -23 0
23 -11 -59 0
10 59 -11 0
10 59 -23 0
11 -10 -59 0
23 -10 -59 0
10 24 -12 0
12 60 -24 0
12 -10 -24 0
24 -12 -60 0
10 60 -12 0
10 60 -24 0
12 -10 -60 0
24 -10 -60 0
10 25 -13 0
13 61 -25 0
13 -10 -25 0
25 -13 -61 0
10 61 -13 0
10 61 -25 0
13 -10 -61 0
25 -10 -61 0
11 26 -12 0
12 62 -26 0
12 -11 -26 0
26 -12 -62 0
11 62 -12 0
11 62 -26 0
12 -11 -62 0
26 -11 -62 0
11 27 -13 0
13 63 -27 0
13 -11 -27 0
27 -13 -63 0
11 63 -13 0
11 63 -27 0
13 -11 -63 0
27 -11 -63 0
12 28 -13 0
13 64 -28 0
13 -12 -28 0
28 -13 -64 0
12 64 -13 0
12 64 -28 0
13 -12 -64 0
28 -12 -64 0
14 19 -15 0
15 65 -19 0
15 -14 -19 0
19 -15 -65 0
14 65 -15 0
14 65 -19 0
15 -14 -65 0
19 -14 -65 0
14 20 -16 0
16 66 -20 0
16 -14 -20 0
20 -16 -66 0
14 66 -16 0
14 66 -20 0
16 -14 -66 0
20 -14 -66 0
14 21 -17 0
17 67 -21 0
17 -14 -21 0
21 -17 -67 0
14 67 -17 0
14 67 -21 0
17 -14 -67 0
21 -14 -67 0
14 22 -18 0
18 68 -22 0
18 -14 -22 0
22 -18 -68 0
14 68 -18 0
14 68 -22 0
18 -14 -68 0
22 -14 -68 0
15 23 -16 0
16 69 -23 0
16 -15 -23 0
23 -16 -69 0
15 69 -16 0
15 69 -23 0
16 -15 -69 0
23 -15 -69 0
15 24 -17 0
17 70 -24 0
17 -15 -24 0
24 -17 -70 0
15 70 -17 0
15 70 -24 0
17 -15 -70 0
24 -15 -70 0
15 25 -18 0
18 71 -25 0
18 -15 -25 0
25 -18 -71 0
15 71 -18 0
15 71 -25 0
18 -15 -71 0
25 -15 -71 0
16 26 -17 0
17 72 -26 0
17 -16 -26 0
26 -17 -72 0
16 72 -17 0
16 72 -26 0
17 -16 -72 0
26 -16 -72 0
16 27 -18 0
18 73 -27 0
18 -16 -27 0
27 -18 -73 0
16 73 -18 0
16 73 -27 0
18 -16 -73 0
27 -16 -73 0
17 28 -18 0
18 74 -28 0
18 -17 -28 0
28 -18 -74 0
17 74 -18 0
17 74 -28 0
18 -17 -74 0
28 -17 -74 0
19 23 -20 0
20 75 -23 0
20 -19 -23 0
23 -20 -75 0
19 75 -20 0
19 75 -23 0
20 -19 -75 0
23 -19 -75 0
19 24 -21 0
21 76 -24 0
21 -19 -24 0
24 -21 -76 0
19 76 -21 0
19 76 -24 0
21 -19 -76 0
24 -19 -76 0
19 25 -22 0
22 77 -25 0
22 -19 -25 0
25 -22 -77 0
19 77 -22 0
19 77 -25 0
22 -19 -77 0
25 -19 -77 0
20 26 -21 0
21 78 -26 0
21 -20 -26 0
26 -21 -78 0
20 78 -21 0
20 78 -26 0
21 -20 -78 0
26 -20 -78 0
20 27 -22 0
22 79 -27 0
22 -20 -27 0
27 -22 -79 0
20 79 -22 0
20 79 -27 0
22 -20 -79 0
27 -20 -79 0
21 28 -22 0
22 80 -28 0
22 -21 -28 0
28 -22 -80 0
21 80 -22 0
21 80 -28 0
22 -21 -80 0
28 -21 -80 0
23 26 -24 0
24 81 -26 0
24 -23 -26 0
26 -24 -81 0
23 81 -24 0
23 81 -26 0
24 -23 -81 0
26 -23 -81 0
23 27 -25 0
25 82 -27 0
25 -23 -27 0
27 -25 -82 0
23 82 -25 0
23 82 -27 0
25 -23 -82 0
27 -23 -82 0
24 28 -25 0
25 83 -28 0
25 -24 -28 0
28 -25 -83 0
24 83 -25 0
24 83 -28 0
25 -24 -83 0
28 -24 -83 0
26 28 -27 0
27 84 -28 0
27 -26 -28 0
28 -27 -84 0
26 84 -27 0
26 84 -28 0
27 -26 -84 0
28 -26 -84 0
29 35 -30 0
30 50 -35 0
30 -29 -35 0
35 -30 -50 0
29 50 -30 0
29 50 -35 0
30 -29 -50 0
35 -29 -50 0
29 36 -31 0
31 51 -36 0
31 -29 -36 0
36 -31 -51 0
29 51 -31 0
29 51 -36 0
31 -29 -51 0
36 -29 -51 0
29 37 -32 0
32 52 -37 0
32 -29 -37 0
37 -32 -52 0
29 52 -32 0
29 52 -37 0
32 -29 -52 0
37 -29 -52 0
29 38 -33 0
33 53 -38 0
33 -29 -38 0
38 -33 -53 0
29 53 -33 0
29 53 -38 0
33 -29 -53 0
38 -29 -53 0
29 39 -34 0
34 54 -39 0
34 -29 -39 0
39 -34 -54 0
29 54 -34 0
29 54 -39 0
34 -29 -54 0
39 -29 -54 0
30 40 -31 0
31 55 -40 0
31 -30 -40 0
40 -31 -55 0
30 55 -31 0
30 55 -40 0
31 -30 -55 0
40 -30 -55 0
30 41 -32 0
32 56 -41 0
32 -30 -41 0
41 -32 -56 0
30 56 -32 0
30 56 -41 0
32 -30 -56 0
41 -30 -56 0
30 42 -33 0
33 57 -42 0
33 -30 -42 0
42 -33 -57 0
30 57 -33 0
30 57 -42 0
33 -30 -57 0
42 -30 -57 0
30 43 -34 0
34 58 -43 0
34 -30 -43 0
43 -34 -58 0
30 58 -34 0
30 58 -43 0
34 -30 -58 0
43 -30 -58 0
31 44 -32 0
32 59 -44 0
32 -31 -44 0
44 -32 -59 0
31 59 -32 0
31 59 -44 0
32 -31 -59 0
44 -31 -59 0
31 45 -33 0
33 60 -45 0
33 -31 -45 0
45 -33 -60 0
31 60 -33 0
31 60 -45 0
33 -31 -60 0
45 -31 -60 0
31 46 -34 0
34 61 -46 0
34 -31 -46 0
46 -34 -61 0
31 61 -34 0
31 61 -46 0
34 -31 -61 0
46 -31 -61 0
32 47 -33 0
33 62 -47 0
33 -32 -47 0
47 -33 -62 0
32 62 -33 0
32 62 -47 0
33 -32 -62 0
47 -32 -62 0
32 48 -34 0
34 63 -48 0
34 -32 -48 0
48 -34 -63 0
32 63 -34 0
32 63 -48 0
34 -32 -63 0
48 -32 -63 0
33 49 -34 0
34 64 -49 0
34 -33 -49 0
49 -34 -64 0
33 64 -34 0
33 64 -49 0
34 -33 -64 0
49 -33 -64 0
35 40 -36 0
36 65 -40 0
36 -35 -40 0
40 -36 -65 0
35 65 -36 0
35 65 -40 0
36 -35 -65 0
40 -35 -65 0
35 41 -37 0
37 66 -41 0
37 -35 -41 0
41 -37 -66 0
35 66 -37 0
35 66 -41 0
37 -35 -66 0
41 -35 -66 0
35 42 -38 0
38 67 -42 0
38 -35 -42 0
42 -38 -67 0
35 67 -38 0
35 67 -42 0
38 -35 -67 0
42 -35 -67 0
35 43 -39 0
39 68 -43 0
39 -35 -43 0
43 -39 -68 0
35 68 -39 0
35 68 -43 0
39 -35 -68 0
43 -35 -68 0
36 44 -37 0
37 69 -44 0
37 -36 -44 0
44 -37 -69 0
36 69 -37 0
36 69 -44 0
37 -36 -69 0
44 -36 -69 0
36 45 -38 0
38 70 -45 0
38 -36 -45 0
45 -38 -70 0
36 70 -38 0
36 70 -45 0
38 -36 -70 0
45 -36 -70 0
36 46 -39 0
39 71 -46 0
39 -36 -46 0
46 -39 -71 0
36 71 -39 0
36 71 -46 0
39 -36 -71 0
46 -36 -71 0
37 47 -38 0
38 72 -47 0
38 -37 -47 0
47 -38 -72 0
37 72 -38 0
37 72 -47 0
38 -37 -72 0
47 -37 -72 0
37 48 -39 0
39 73 -48 0
39 -37 -48 0
48 -39 -73 0
37 73 -39 0
37 73 -48 0
39 -37 -73 0
48 -37 -73 0
38 49 -39 0
39 74 -49 0
39 -38 -49 0
49 -39 -74 0
38 74 -39 0
38 74 -49 0
39 -38 -74 0
49 -38 -74 0
40 44 -41 0
41 75 -44 0
41 -40 -44 0
44 -41 -75 0
40 75 -41 0
40 75 -44 0
41 -40 -75 0
44 -40 -75 0
40 45 -42 0
42 76 -45 0
42 -40 -45 0
45 -42 -76 0
40 76 -42 0
40 76 -45 0
42 -40 -76 0
45 -40 -76 0
40 46 -43 0
43 77 -46 0
43 -40 -46 0
46 -43 -77 0
40 77 -43 0
40 77 -46 0
43 -40 -77 0
46 -40 -77 0
41 47 -42 0
42 78 -47 0
42 -41 -47 0
47 -42 -78 0
41 78 -42 0
41 78 -47 0
42 -41 -78 0
47 -41 -78 0
41 48 -43 0
43 79 -48 0
43 -41 -48 0
48 -43 -79 0
41 79 -43 0
41 79 -48 0
43 -41 -79 0
48 -41 -79 0
42 49 -43 0
43 80 -49 0
43 -42 -49 0
49 -43 -80 0
42 80 -43 0
42 80 -49 0
43 -42 -80 0
49 -42 -80 0
44 47 -45 0
45 81 -47 0
45 -44 -47 0
47 -45 -81 0
44 81 -45 0
44 81 -47 0
45 -44 -81 0
47 -44 -81 0
44 48 -46 0
46 82 -48 0
46 -44 -48 0
48 -46 -82 0
44 82 -46 0
44 82 -48 0
46 -44 -82 0
48 -44 -82 0
45 49 -46 0
46 83 -49 0
46 -45 -49 0
49 -46 -83 0
45 83 -46 0
45 83 -49 0
46 -45 -83 0
49 -45 -83 0
47 49 -48 0
48 84 -49 0
48 -47 -49 0
49 -48 -84 0
47 84 -48 0
47 84 -49 0
48 -47 -84 0
49 -47 -84 0
50 55 -51 0
51 65 -55 0
51 -50 -55 0
55 -51 -65 0
50 65 -51 0
50 65 -55 0
51 -50 -65 0
55 -50 -65 0
50 56 -52 0
52 66 -56 0
52 -50 -56 0
56 -52 -66 0
50 66 -52 0
50 66 -56 0
52 -50 -66 0
56 -50 -66 0
50 57 -53 0
53 67 -57 0
53 -50 -57 0
57 -53 -67 0
50 67 -53 0
50 67 -57 0
53 -50 -67 0
57 -50 -67 0
50 58 -54 0
54 68 -58 0
54 -50 -58 0
58 -54 -68 0
50 68 -54 0
50 68 -58 0
54 -50 -68 0
58 -50 -68 0
51 59 -52 0
52 69 -59 0
52 -51 -59 0
59 -52 -69 0
51 69 -52 0
51 69 -59 0
52 -51 -69 0
59 -51 -69 0
51 60 -53 0
53 70 -60 0
53 -51 -60 0
60 -53 -70 0
51 70 -53 0
51 70 -60 0
53 -51 -70 0
60 -51 -70 0
51 61 -54 0
54 71 -61 0
54 -51 -61 0
61 -54 -71 0
51 71 -54 0
51 71 -61 0
54 -51 -71 0
61 -51 -71 0
52 62 -53 0
53 72 -62 0
53 -52 -62 0
62 -53 -72 0
52 72 -53 0
52 72 -62 0
53 -52 -72 0
62 -52 -72 0
52 63 -54 0
54 73 -63 0
54 -52 -63 0
63 -54 -73 0
52 73 -54 0
52 73 -63 0
54 -52 -73 0
63 -52 -73 0
53 64 -54 0
54 74 -64 0
54 -53 -64 0
64 -54 -74 0
53 74 -54 0
53 74 -64 0
54 -53 -74 0
64 -53 -74 0
55 59 -56 0
56 75 -59 0
56 -55 -59 0
59 -56 -75 0
55 75 -56 0
55 75 -59 0
56 -55 -75 0
59 -55 -75 0
55 60 -57 0
57 76 -60 0
57 -55 -60 0
60 -57 -76 0
55 76 -57 0
55 76 -60 0
57 -55 -76 0
60 -55 -76 0
55 61 -58 0
58 77 -61 0
58 -55 -61 0
61 -58 -77 0
55 77 -58 0
55 77 -61 0
58 -55 -77 0
61 -55 -77 0
56 62 -57 0
57 78 -62 0
57 -56 -62 0
62 -57 -78 0
56 78 -57 0
56 78 -62 0
57 -56 -78 0
62 -56 -78 0
56 63 -58 0
58 79 -63 0
58 -56 -63 0
63 -58 -79 0
56 79 -58 0
56 79 -63 0
58 -56 -79 0
63 -56 -79 0
57 64 -58 0
58 80 -64 0
58 -57 -64 0
64 -58 -80 0
57 80 -58 0
57 80 -64 0
58 -57 -80 0
64 -57 -80 0
59 62 -60 0
60 81 -62 0
60 -59 -62 0
62 -60 -81 0
59 81 -60 0
59 81 -62 0
60 -59 -81 0
62 -59 -81 0
59 63 -61 0
61 82 -63 0
61 -59 -63 0
63 -61 -82 0
59 82 -61 0
59 82 -63 0
61 -59 -82 0
63 -59 -82 0
60 64 -61 0
61 83 -64 0
61 -60 -64 0
64 -61 -83 0
60 83 -61 0
60 83 -64 0
61 -60 -83 0
64 -60 -83 0
62 64 -63 0
63 84 -64 0
63 -62 -64 0
64 -63 -84 0
62 84 -63 0
62 84 -64 0
63 -62 -84 0
64 -62 -84 0
65 69 -66 0
66 75 -69 0
66 -65 -69 0
69 -66 -75 0
65 75 -66 0
65 75 -69 0
66 -65 -75 0
69 -65 -75 0
65 70 -67 0
67 76 -70 0
67 -65 -70 0
70 -67 -76 0
65 76 -67 0
65 76 -70 0
67 -65 -76 0
70 -65 -76 0
65 71 -68 0
68 77 -71 0
68 -65 -71 0
71 -68 -77 0
65 77 -68 0
65 77 -71 0
68 -65 -77 0
71 -65 -77 0
66 72 -67 0
67 78 -72 0
67 -66 -72 0
72 -67 -78 0
66 78 -67 0
66 78 -72 0
67 -66 -78 0
72 -66 -78 0
66 73 -68 0
68 79 -73 0
68 -66 -73 0
73 -68 -79 0
66 79 -68 0
66 79 -73 0
68 -66 -79 0
73 -66 -79 0
67 74 -68 0
68 80 -74 0
68 -67 -74 0
74 -68 -80 0
67 80 -68 0
67 80 -74 0
68 -67 -80 0
74 -67 -80 0
69 72 -70 0
70 81 -72 0
70 -69 -72 0
72 -70 -81 0
69 81 -70 0
69 81 -72 0
70 -69 -81 0
72 -69 -81 0
69 73 -71 0
71 82 -73 0
71 -69 -73 0
73 -71 -82 0
69 82 -71 0
69 82 -73 0
71 -69 -82 0
73 -69 -82 0
70 74 -71 0
71 83 -74 0
71 -70 -74 0
74 -71 -83 0
70 83 -71 0
70 83 -74 0
71 -70 -83 0
74 -70 -83 0
72 74 -73 0
73 84 -74 0
73 -72 -74 0
74 -73 -84 0
72 84 -73 0
72 84 -74 0
73 -72 -84 0
74 -72 -84 0
75 78 -76 0
76 81 -78 0
76 -75 -78 0
78 -76 -81 0
75 81 -76 0
75 81 -78 0
76 -75 -81 0
78 -75 -81 0
75 79 -77 0
77 82 -79 0
77 -75 -79 0
79 -77 -82 0
75 82 -77 0
75 82 -79 0
77 -75 -82 0
79 -75 -82 0
76 80 -77 0
77 83 -80 0
77 -76 -80 0
80 -77 -83 0
76 83 -77 0
76 83 -80 0
77 -76 -83 0
80 -76 -83 0
78 80 -79 0
79 84 -80 0
79 -78 -80 0
80 -79 -84 0
78 84 -79 0
78 84 -80 0
79 -78 -84 0
80 -78 -84 0
81 83 -82 0
82 84 -83 0
82 -81 -83 0
83 -82 -84 0
81 84 -82 0
81 84 -83 0
82 -81 -84 0
83 -81 -84 0
3 9 14 1 29 50 0
-14 3 9 1 30 0
-9 3 14 2 35 0
-9 -14 3 -8 -50 0
-3 9 14 8 50 0
-3 -14 9 -2 -35 0
-3 -9 14 -1 -30 0
-3 -9 -14 -1 -29 -50 0
4 10 15 1 29 51 0
-15 4 10 1 31 0
-10 4 15 2 36 0
-10 -15 4 -8 -51 0
-4 10 15 8 51 0
-4 -15 10 -2 -36 0
-4 -10 15 -1 -31 0
-4 -10 -15 -1 -29 -51 0
5 11 16 1 29 52 0
-16 5 11 1 32 0
-11 5 16 2 37 0
-11 -16 5 -8 -52 0
-5 11 16 8 52 0
-5 -16 11 -2 -37 0
-5 -11 16 -1 -32 0
-5 -11 -16 -1 -29 -52 0
6 12 17 1 29 53 0
-17 6 12 1 33 0
-12 6 17 2 38 0
-12 -17 6 -8 -53 0
-6 12 17 8 53 0
-6 -17 12 -2 -38 0
-6 -12 17 -1 -33 0
-6 -12 -17 -1 -29 -53 0
7 13 18 1 29 54 0
-18 7 13 1 34 0
-13 7 18 2 39 0
-13 -18 7 -8 -54 0
-7 13 18 8 54 0
-7 -18 13 -2 -39 0
-7 -13 18 -1 -34 0
-7 -13 -18 -1 -29 -54 0
4 10 19 1 30 55 0
-19 4 10 1 31 0
-10 4 19 3 40 0
-10 -19 4 -9 -55 0
-4 10 19 9 55 0
-4 -19 10 -3 -40 0
-4 -10 19 -1 -31 0
-4 -10 -19 -1 -30 -55 0
5 11 20 1 30 56 0
-20 5 11 1 32 0
-11 5 20 3 41 0
-11 -20 5 -9 -56 0
-5 11 20 9 56 0
-5 -20 11 -3 -41 0
-5 -11 20 -1 -32 0
-5 -11 -20 -1 -30 -56 0
6 12 21 1 30 57 0
-21 6 12 1 33 0
-12 6 21 3 42 0
-12 -21 6 -9 -57 0
-6 12 21 9 57 0
-6 -21 12 -3 -42 0
-6 -12 21 -1 -33 0
-6 -12 -21 -1 -30 -57 0
7 13 22 1 30 58 0
-22 7 13 1 34 0
-13 7 22 3 43 0
-13 -22 7 -9 -58 0
-7 13 22 9 58 0
-7 -22 13 -3 -43 0
-7 -13 22 -1 -34 0
-7 -13 -22 -1 -30 -58 0
5 11 23 1 31 59 0
-23 5 11 1 32 0
-11 5 23 4 44 0
-11 -23 5 -10 -59 0
-5 11 23 10 59 0
-5 -23 11 -4 -44 0
-5 -11 23 -1 -32 0
-5 -11 -23 -1 -31 -59 0
6 12 24 1 31 60 0
-24 6 12 1 33 0
-12 6 24 4 45 0
-12 -24 6 -10 -60 0
-6 12 24 10 60 0
-6 -24 12 -4 -45 0
-6 -12 24 -1 -33 0
-6 -12 -24 -1 -31 -60 0
7 13 25 1 31 61 0
-25 7 13 1 34 0
-13 7 25 4 46 0
-13 -25 7 -10 -61 0
-7 13 25 10 61 0
-7 -25 13 -4 -46 0
-7 -13 25 -1 -34 0
-7 -13 -25 -1 -31 -61 0
6 12 26 1 32 62 0
-26 6 12 1 33 0
-12 6 26 5 47 0
-12 -26 6 -11 -62 0
-6 12 26 11 62 0
-6 -26 12 -5 -47 0
-6 -12 26 -1 -33 0
-6 -12 -26 -1 -32 -62 0
7 13 27 1 32 63 0
-27 7 13 1 34 0
-13 7 27 5 48 0
-13 -27 7 -11 -63 0
-7 13 27 11 63 0
-7 -27 13 -5 -48 0
-7 -13 27 -1 -34 0
-7 -13 -27 -1 -32 -63 0
7 13 28 1 33 64 0
-28 7 13 1 34 0
-13 7 28 6 49 0
-13 -28 7 -12 -64 0
-7 13 28 12 64 0
-7 -28 13 -6 -49 0
-7 -13 28 -1 -34 0
-7 -13 -28 -1 -33 -64 0
4 15 19 2 35 65 0
-19 4 15 2 36 0
-15 4 19 3 40 0
-15 -19 4 -14 -65 0
-4 15 19 14 65 0
-4 -19 15 -3 -40 0
-4 -15 19 -2 -36 0
-4 -15 -19 -2 -35 -65 0
5 16 20 2 35 66 0
-20 5 16 2 37 0
-16 5 20 3 41 0
-16 -20 5 -14 -66 0
-5 16 20 14 66 0
-5 -20 16 -3 -41 0
-5 -16 20 -2 -37 0
-5 -16 -20 -2 -35 -66 0
6 17 21 2 35 67 0
-21 6 17 2 38 0
-17 6 21 3 42 0
-17 -21 6 -14 -67 0
-6 17 21 14 67 0
-6 -21 17 -3 -42 0
-6 -17 21 -2 -38 0
-6 -17 -21 -2 -35 -67 0
7 18 22 2 35 68 0
-22 7 18 2 39 0
-18 7 22 3 43 0
-18 -22 7 -14 -68 0
-7 18 22 14 68 0
-7 -22 18 -3 -43 0
-7 -18 22 -2 -39 0
-7 -18 -22 -2 -35 -68 0
5 16 23 2 36 69 0
-23 5 16 2 37 0
-16 5 23 4 44 0
-16 -23 5 -15 -69 0
-5 16 23 15 69 0
-5 -23 16 -4 -44 0
-5 -16 23 -2 -37 0
-5 -16 -23 -2 -36 -69 0
6 17 24 2 36 70 0
-24 6 17 2 38 0
-17 6 24 4 45 0
-17 -24 6 -15 -70 0
-6 17 24 15 70 0
-6 -24 17 -4 -45 0
-6 -17 24 -2 -38 0
-6 -17 -24 -2 -36 -70 0
7 18 25 2 36 71 0
-25 7 18 2 39 0
-18 7 25 4 46 0
-18 -25 7 -15 -71 0
-7 18 25 15 71 0
-7 -25 18 -4 -46 0
-7 -18 25 -2 -39 0
-7 -18 -25 -2 -36 -71 0
6 17 26 2 37 72 0
-26 6 17 2 38 0
-17 6 26 5 47 0
-17 -26 6 -16 -72 0
-6 17 26 16 72 0
-6 -26 17 -5 -47 0
-6 -17 26 -2 -38 0
-6 -17 -26 -2 -37 -72 0
7 18 27 2 37 73 0
-27 7 18 2 39 0
-18 7 27 5 48 0
-18 -27 7 -16 -73 0
-7 18 27 16 73 0
-7 -27 18 -5 -48 0
-7 -18 27 -2 -39 0
-7 -18 -27 -2 -37 -73 0
7 18 28 2 38 74 0
-28 7 18 2 39 0
-18 7 28 6 49 0
-18 -28 7 -17 -74 0
-7 18 28 17 74 0
-7 -28 18 -6 -49 0
-7 -18 28 -2 -39 0
-7 -18 -28 -2 -38 -74 0
5 20 23 3 40 75 0
-23 5 20 3 41 0
-20 5 23 4 44 0
-20 -23 5 -19 -75 0
-5 20 23 19 75 0
-5 -23 20 -4 -44 0
-5 -20 23 -3 -41 0
-5 -20 -23 -3 -40 -75 0
6 21 24 3 40 76 0
-24 6 21 3 42 0
-21 6 24 4 45 0
-21 -24 6 -19 -76 0
-6 21 24 19 76 0
-6 -24 21 -4 -45 0
-6 -21 24 -3 -42 0
-6 -21 -24 -3 -40 -76 0
7 22 25 3 40 77 0
-25 7 22 3 43 0
-22 7 25 4 46 0
-22 -25 7 -19 -77 0
-7 22 25 19 77 0
-7 -25 22 -4 -46 0
-7 -22 25 -3 -43 0
-7 -22 -25 -3 -40 -77 0
6 21 26 3 41 78 0
-26 6 21 3 42 0
-21 6 26 5 47 0
-21 -26 6 -20 -78 0
-6 21 26 20 78 0
-6 -26 21 -5 -47 0
-6 -21 26 -3 -42 0
-6 -21 -26 -3 -41 -78 0
7 22 27 3 41 79 0
-27 7 22 3 43 0
-22 7 27 5 48 0
-22 -27 7 -20 -79 0
-7 22 27 20 79 0
-7 -27 22 -5 -48 0
-7 -22 27 -3 -43 0
-7 -22 -27 -3 -41 -79 0
7 22 28 3 42 80 0
-28 7 22 3 43 0
-22 7 28 6 49 0
-22 -28 7 -21 -80 0
-7 22 28 21 80 0
-7 -28 22 -6 -49 0
-7 -22 28 -3 -43 0
-7 -22 -28 -3 -42 -80 0
6 24 26 4 44 81 0
-26 6 24 4 45 0
-24 6 26 5 47 0
-24 -26 6 -23 -81 0
-6 24 26 23 81 0
-6 -26 24 -5 -47 0
-6 -24 26 -4 -45 0
-6 -24 -26 -4 -44 -81 0
7 25 27 4 44 82 0
-27 7 25 4 46 0
-25 7 27 5 48 0
-25 -27 7 -23 -82 0
-7 25 27 23 82 0
-7 -27 25 -5 -48 0
-7 -25 27 -4 -46 0
-7 -25 -27 -4 -44 -82 0
7 25 28 4 45 83 0
-28 7 25 4 46 0
-25 7 28 6 49 0
-25 -28 7 -24 -83 0
-7 25 28 24 83 0
-7 -28 25 -6 -49 0
-7 -25 28 -4 -46 0
-7 -25 -28 -4 -45 -83 0
7 27 28 5 47 84 0
-28 7 27 5 48 0
-27 7 28 6 49 0
-27 -28 7 -26 -84 0
-7 27 28 26 84 0
-7 -28 27 -6 -49 0
-7 -27 28 -5 -48 0
-7 -27 -28 -5 -47 -84 0
10 15 19 8 50 65 0
-19 10 15 8 51 0
-15 10 19 9 55 0
-15 -19 10 -14 -65 0
-10 15 19 14 65 0
-10 -19 15 -9 -55 0
-10 -15 19 -8 -51 0
-10 -15 -19 -8 -50 -65 0
11 16 20 8 50 66 0
-20 11 16 8 52 0
-16 11 20 9 56 0
-16 -20 11 -14 -66 0
-11 16 20 14 66 0
-11 -20 16 -9 -56 0
-11 -16 20 -8 -52 0
-11 -16 -20 -8 -50 -66 0
12 17 21 8 50 67 0
-21 12 17 8 53 0
-17 12 21 9 57 0
-17 -21 12 -14 -67 0
-12 17 21 14 67 0
-12 -21 17 -9 -57 0
-12 -17 21 -8 -53 0
-12 -17 -21 -8 -50 -67 0
13 18 22 8 50 68 0
-22 13 18 8 54 0
-18 13 22 9 58 0
-18 -22 13 -14 -68 0
-13 18 22 14 68 0
-13 -22 18 -9 -58 0
-13 -18 22 -8 -54 0
-13 -18 -22 -8 -50 -68 0
11 16 23 8 51 69 0
-23 11 16 8 52 0
-16 11 23 10 59 0
-16 -23 11 -15 -69 0
-11 16 23 15 69 0
-11 -23 16 -10 -59 0
-11 -16 23 -8 -52 0
-11 -16 -23 -8 -51 -69 0
12 17 24 8 51 70 0
-24 12 17 8 53 0
-17 12 24 10 60 0
-17 -24 12 -15 -70 0
-12 17 24 15 70 0
-12 -24 17 -10 -60 0
-12 -17 24 -8 -53 0
-12 -17 -24 -8 -51 -70 0
13 18 25 8 51 71 0
-25 13 18 8 54 0
-18 13 25 10 61 0
-18 -25 13 -15 -71 0
-13 18 25 15 71 0
-13 -25 18 -10 -61 0
-13 -18 25 -8 -54 0
-13 -18 -25 -8 -51 -71 0
12 17 26 8 52 72 0
-26 12 17 8 53 0
-17 12 26 11 62 0
-17 -26 12 -16 -72 0
-12 17 26 16 72 0
-12 -26 17 -11 -62 0
-12 -17 26 -8 -53 0
-12 -17 -26 -8 -52 -72 0
13 18 27 8 52 73 0
-27 13 18 8 54 0
-18 13 27 11 63 0
-18 -27 13 -16 -73 0
-13 18 27 16 73 0
-13 -27 18 -11 -63 0
-13 -18 27 -8 -54 0
-13 -18 -27 -8 -52 -73 0
13 18 28 8 53 74 0
-28 13 18 8 54 0
-18 13 28 12 64 0
-18 -28 13 -17 -74 0
-13 18 28 17 74 0
-13 -28 18 -12 -64 0
-13 -18 28 -8 -54 0
-13 -18 -28 -8 -53 -74 0
11 20 23 9 55 75 0
-23 11 20 9 56 0
-20 11 23 10 59 0
-20 -23 11 -19 -75 0
-11 20 23 19 75 0
-11 -23 20 -10 -59 0
-11 -20 23 -9 -56 0
-11 -20 -23 -9 -55 -75 0
12 21 24 9 55 76 0
-24 12 21 9 57 0
-21 12 24 10 60 0
-21 -24 12 -19 -76 0
-12 21 24 19 76 0
-12 -24 21 -10 -60 0
-12 -21 24 -9 -57 0
-12 -21 -24 -9 -55 -76 0
13 22 25 9 55 77 0
-25 13 22 9 58 0
-22 13 25 10 61 0
-22 -25 13 -19 -77 0
-13 22 25 19 77 0
-13 -25 22 -10 -61 0
-13 -22 25 -9 -58 0
-13 -22 -25 -9 -55 -77 0
12 21 26 9 56 78 0
-26 12 21 9 57 0
-21 12 26 11 62 0
-21 -26 12 -20 -78 0
-12 21 26 20 78 0
-12 -26 21 -11 -62 0
-12 -21 26 -9 -57 0
-12 -21 -26 -9 -56 -78 0
13 22 27 9 56 79 0
-27 13 22 9 58 0
-22 13 27 11 63 0
-22 -27 13 -20 -79 0
-13 22 27 20 79 0
-13 -27 22 -11 -63 0
-13 -22 27 -9 -58 0
-13 -22 -27 -9 -56 -79 0
13 22 28 9 57 80 0
-28 13 22 9 58 0
-22 13 28 12 64 0
-22 -28 13 -21 -80 0
-13 22 28 21 80 0
-13 -28 22 -12 -64 0
-13 -22 28 -9 -58 0
-13 -22 -28 -9 -57 -80 0
12 24 26 10 59 81 0
-26 12 24 10 60 0
-24 12 26 11 62 0
-24 -26 12 -23 -81 0
-12 24 26 23 81 0
-12 -26 24 -11 -62 0
-12 -24 26 -10 -60 0
-12 -24 -26 -10 -59 -81 0
13 25 27 10 59 82 0
-27 13 25 10 61 0
-25 13 27 11 63 0
-25 -27 13 -23 -82 0
-13 25 27 23 82 0
-13 -27 25 -11 -63 0
-13 -25 27 -10 -61 0
-13 -25 -27 -10 -59 -82 0
13 25 28 10 60 83 0
-28 13 25 10 61 0
-25 13 28 12 64 0
-25 -28 13 -24 -83 0
-13 25 28 24 83 0
-13 -28 25 -12 -64 0
-13 -25 28 -10 -61 0
-13 -25 -28 -10 -60 -83 0
13 27 28 11 62 84 0
-28 13 27 11 63 0
-27 13 28 12 64 0
-27 -28 13 -26 -84 0
-13 27 28 26 84 0
-13 -28 27 -12 -64 0
-13 -27 28 -11 -63 0
-13 -27 -28 -11 -62 -84 0
16 20 23 14 65 75 0
-23 16 20 14 66 0
-20 16 23 15 69 0
-20 -23 16 -19 -75 0
-16 20 23 19 75 0
-16 -23 20 -15 -69 0
-16 -20 23 -14 -66 0
-16 -20 -23 -14 -65 -75 0
17 21 24 14 65 76 0
-24 17 21 14 67 0
-21 17 24 15 70 0
-21 -24 17 -19 -76 0
-17 21 24 19 76 0
-17 -24 21 -15 -70 0
-17 -21 24 -14 -67 0
-17 -21 -24 -14 -65 -76 0
18 22 25 14 65 77 0
-25 18 22 14 68 0
-22 18 25 15 71 0
-22 -25 18 -19 -77 0
-18 22 25 19 77 0
-18 -25 22 -15 -71 0
-18 -22 25 -14 -68 0
-18 -22 -25 -14 -65 -77 0
17 21 26 14 66 78 0
-26 17 21 14 67 0
-21 17 26 16 72 0
-21 -26 17 -20 -78 0
-17 21 26 20 78 0
-17 -26 21 -16 -72 0
-17 -21 26 -14 -67 0
-17 -21 -26 -14 -66 -78 0
18 22 27 14 66 79 0
-27 18 22 14 68 0
-22 18 27 16 73 0
-22 -27 18 -20 -79 0
-18 22 27 20 79 0
-18 -27 22 -16 -73 0
-18 -22 27 -14 -68 0
-18 -22 -27 -14 -66 -79 0
18 22 28 14 67 80 0
-28 18 22 14 68 0
-22 18 28 17 74 0
-22 -28 18 -21 -80 0
-18 22 28 21 80 0
-18 -28 22 -17 -74 0
-18 -22 28 -14 -68 0
-18 -22 -28 -14 -67 -80 0
17 24 26 15 69 81 0
-26 17 24 15 70 0
-24 17 26 16 72 0
-24 -26 17 -23 -81 0
-17 24 26 23 81 0
-17 -26 24 -16 -72 0
-17 -24 26 -15 -70 0
-17 -24 -26 -15 -69 -81 0
18 25 27 15 69 82 0
-27 18 25 15 71 0
-25 18 27 16 73 0
-25 -27 18 -23 -82 0
-18 25 27 23 82 0
-18 -27 25 -16 -73 0
-18 -25 27 -15 -71 0
-18 -25 -27 -15 -69 -82 0
18 25 28 15 70 83 0
-28 18 25 15 71 0
-25 18 28 17 74 0
-25 -28 18 -24 -83 0
-18 25 28 24 83 0
-18 -28 25 -17 -74 0
-18 -25 28 -15 -71 0
-18 -25 -28 -15 -70 -83 0
18 27 28 16 72 84 0
-28 18 27 16 73 0
-27 18 28 17 74 0
-27 -28 18 -26 -84 0
-18 27 28 26 84 0
-18 -28 27 -17 -74 0
-18 -27 28 -16 -73 0
-18 -27 -28 -16 -72 -84 0
21 24 26 19 75 81 0
-26 21 24 19 76 0
-24 21 26 20 78 0
-24 -26 21 -23 -81 0
-21 24 26 23 81 0
-21 -26 24 -20 -78 0
-21 -24 26 -19 -76 0
-21 -24 -26 -19 -75 -81 0
22 25 27 19 75 82 0
-27 22 25 19 77 0
-25 22 27 20 79 0
-25 -27 22 -23 -82 0
-22 25 27 23 82 0
-22 -27 25 -20 -79 0
-22 -25 27 -19 -77 0
-22 -25 -27 -19 -75 -82 0
22 25 28 19 76 83 0
-28 22 25 19 77 0
-25 22 28 21 80 0
-25 -28 22 -24 -83 0
-22 25 28 24 83 0
-22 -28 25 -21 -80 0
-22 -25 28 -19 -77 0
-22 -25 -28 -19 -76 -83 0
22 27 28 20 78 84 0
-28 22 27 20 79 0
-27 22 28 21 80 0
-27 -28 22 -26 -84 0
-22 27 28 26 84 0
-22 -28 27 -21 -80 0
-22 -27 28 -20 -79 0
-22 -27 -28 -20 -78 -84 0
25 27 28 23 81 84 0
-28 25 27 23 82 0
-27 25 28 24 83 0
-27 -28 25 -26 -84 0
-25 27 28 26 84 0
-25 -28 27 -24 -83 0
-25 -27 28 -23 -82 0
-25 -27 -28 -23 -81 -84 0
31 36 40 29 50 65 0
-40 31 36 29 51 0
-36 31 40 30 55 0
-36 -40 31 -35 -65 0
-31 36 40 35 65 0
-31 -40 36 -30 -55 0
-31 -36 40 -29 -51 0
-31 -36 -40 -29 -50 -65 0
32 37 41 29 50 66 0
-41 32 37 29 52 0
-37 32 41 30 56 0
-37 -41 32 -35 -66 0
-32 37 41 35 66 0
-32 -41 37 -30 -56 0
-32 -37 41 -29 -52 0
-32 -37 -41 -29 -50 -66 0
33 38 42 29 50 67 0
-42 33 38 29 53 0
-38 33 42 30 57 0
-38 -42 33 -35 -67 0
-33 38 42 35 67 0
-33 -42 38 -30 -57 0
-33 -38 42 -29 -53 0
-33 -38 -42 -29 -50 -67 0
34 39 43 29 50 68 0
-43 34 39 29 54 0
-39 34 43 30 58 0
-39 -43 34 -35 -68 0
-34 39 43 35 68 0
-34 -43 39 -30 -58 0
-34 -39 43 -29 -54 0
-34 -39 -43 -29 -50 -68 0
32 37 44 29 51 69 0
-44 32 37 29 52 0
-37 32 44 31 59 0
-37 -44 32 -36 -69 0
-32 37 44 36 69 0
-32 -44 37 -31 -59 0
-32 -37 44 -29 -52 0
-32 -37 -44 -29 -51 -69 0
33 38 45 29 51 70 0
-45 33 38 29 53 0
-38 33 45 31 60 0
-38 -45 33 -36 -70 0
-33 38 45 36 70 0
-33 -45 38 -31 -60 0
-33 -38 45 -29 -53 0
-33 -38 -45 -29 -51 -70 0
34 39 46 29 51 71 0
-46 34 39 29 54 0
-39 34 46 31 61 0
-39 -46 34 -36 -71 0
-34 39 46 36 71 0
-34 -46 39 -31 -61 0
-34 -39 46 -29 -54 0
-34 -39 -46 -29 -51 -71 0
33 38 47 29 52 72 0
-47 33 38 29 53 0
-38 33 47 32 62 0
-38 -47 33 -37 -72 0
-33 38 47 37 72 0
-33 -47 38 -32 -62 0
-33 -38 47 -29 -53 0
-33 -38 -47 -29 -52 -72 0
34 39 48 29 52 73 0
-48 34 39 29 54 0
-39 34 48 32 63 0
-39 -48 34 -37 -73 0
-34 39 48 37 73 0
-34 -48 39 -32 -63 0
-34 -39 48 -29 -54 0
-34 -39 -48 -29 -52 -73 0
34 39 49 29 53 74 0
-49 34 39 29 54 0
-39 34 49 33 64 0
-39 -49 34 -38 -74 0
-34 39 49 38 74 0
-34 -49 39 -33 -64 0
-34 -39 49 -29 -54 0
-34 -39 -49 -29 -53 -74 0
32 41 44 30 55 75 0
-44 32 41 30 56 0
-41 32 44 31 59 0
-41 -44 32 -40 -75 0
-32 41 44 40 75 0
-32 -44 41 -31 -59 0
-32 -41 44 -30 -56 0
-32 -41 -44 -30 -55 -75 0
33 42 45 30 55 76 0
-45 33 42 30 57 0
-42 33 45 31 60 0
-42 -45 33 -40 -76 0
-33 42 45 40 76 0
-33 -45 42 -31 -60 0
-33 -42 45 -30 -57 0
-33 -42 -45 -30 -55 -76 0
34 43 46 30 55 77 0
-46 34 43 30 58 0
-43 34 46 31 61 0
-43 -46 34 -40 -77 0
-34 43 46 40 77 0
-34 -46 43 -31 -61 0
-34 -43 46 -30 -58 0
-34 -43 -46 -30 -55 -77 0
33 42 47 30 56 78 0
-47 33 42 30 57 0
-42 33 47 32 62 0
-42 -47 33 -41 -78 0
-33 42 47 41 78 0
-33 -47 42 -32 -62 0
-33 -42 47 -30 -57 0
-33 -42 -47 -30 -56 -78 0
34 43 48 30 56 79 0
-48 34 43 30 58 0
-43 34 48 32 63 0
-43 -48 34 -41 -79 0
-34 43 48 41 79 0
-34 -48 43 -32 -63 0
-34 -43 48 -30 -58 0
-34 -43 -48 -30 -56 -79 0
34 43 49 30 57 80 0
-49 34 43 30 58 0
-43 34 49 33 64 0
-43 -49 34 -42 -80 0
-34 43 49 42 80 0
-34 -49 43 -33 -64 0
-34 -43 49 -30 -58 0
-34 -43 -49 -30 -57 -80 0
33 45 47 31 59 81 0
-47 33 45 31 60 0
-45 33 47 32 62 0
-45 -47 33 -44 -81 0
-33 45 47 44 81 0
-33 -47 45 -32 -62 0
-33 -45 47 -31 -60 0
-33 -45 -47 -31 -59 -81 0
34 46 48 31 59 82 0
-48 34 46 31 61 0
-46 34 48 32 63 0
-46 -48 34 -44 -82 0
-34 46 48 44 82 0
-34 -48 46 -32 -63 0
-34 -46 48 -31 -61 0
-34 -46 -48 -31 -59 -82 0
34 46 49 31 60 83 0
-49 34 46 31 61 0
-46 34 49 33 64 0
-46 -49 34 -45 -83 0
-34 46 49 45 83 0
-34 -49 46 -33 -64 0
-34 -46 49 -31 -61 0
-34 -46 -49 -31 -60 -83 0
34 48 49 32 62 84 0
-49 34 48 32 63 0
-48 34 49 33 64 0
-48 -49 34 -47 -84 0
-34 48 49 47 84 0
-34 -49 48 -33 -64 0
-34 -48 49 -32 -63 0
-34 -48 -49 -32 -62 -84 0
37 41 44 35 65 75 0
-44 37 41 35 66 0
-41 37 44 36 69 0
-41 -44 37 -40 -75 0
-37 41 44 40 75 0
-37 -44 41 -36 -69 0
-37 -41 44 -35 -66 0
-37 -41 -44 -35 -65 -75 0
38 42 45 35 65 76 0
-45 38 42 35 67 0
-42 38 45 36 70 0
-42 -45 38 -40 -76 0
-38 42 45 40 76 0
-38 -45 42 -36 -70 0
-38 -42 45 -35 -67 0
-38 -42 -45 -35 -65 -76 0
39 43 46 35 65 77 0
-46 39 43 35 68 0
-43 39 46 36 71 0
-43 -46 39 -40 -77 0
-39 43 46 40 77 0
-39 -46 43 -36 -71 0
-39 -43 46 -35 -68 0
-39 -43 -46 -35 -65 -77 0
38 42 47 35 66 78 0
-47 38 42 35 67 0
-42 38 47 37 72 0
-42 -47 38 -41 -78 0
-38 42 47 41 78 0
-38 -47 42 -37 -72 0
-38 -42 47 -35 -67 0
-38 -42 -47 -35 -66 -78 0
39 43 48 35 66 79 0
-48 39 43 35 68 0
-43 39 48 37 73 0
-43 -48 39 -41 -79 0
-39 43 48 41 79 0
-39 -48 43 -37 -73 0
-39 -43 48 -35 -68 0
-39 -43 -48 -35 -66 -79 0
39 43 49 35 67 80 0
-49 39 43 35 68 0
-43 39 49 38 74 0
-43 -49 39 -42 -80 0
-39 43 49 42 80 0
-39 -49 43 -38 -74 0
-39 -43 49 -35 -68 0
-39 -43 -49 -35 -67 -80 0
38 45 47 36 69 81 0
-47 38 45 36 70 0
-45 38 47 37 72 0
-45 -47 38 -44 -81 0
-38 45 47 44 81 0
-38 -47 45 -37 -72 0
-38 -45 47 -36 -70 0
-38 -45 -47 -36 -69 -81 0
39 46 48 36 69 82 0
-48 39 46 36 71 0
-46 39 48 37 73 0
-46 -48 39 -44 -82 0
-39 46 48 44 82 0
-39 -48 46 -37 -73 0
-39 -46 48 -36 -71 0
-39 -46 -48 -36 -69 -82 0
39 46 49 36 70 83 0
-49 39 46 36 71 0
-46 39 49 38 74 0
-46 -49 39 -45 -83 0
-39 46 49 45 83 0
-39 -49 46 -38 -74 0
-39 -46 49 -36 -71 0
-39 -46 -49 -36 -70 -83 0
39 48 49 37 72 84 0
-49 39 48 37 73 0
-48 39 49 38 74 0
-48 -49 39 -47 -84 0
-39 48 49 47 84 0
-39 -49 48 -38 -74 0
-39 -48 49 -37 -73 0
-39 -48 -49 -37 -72 -84 0
42 45 47 40 75 81 0
-47 42 45 40 76 0
-45 42 47 41 78 0
-45 -47 42 -44 -81 0
-42 45 47 44 81 0
-42 -47 45 -41 -78 0
-42 -45 47 -40 -76 0
-42 -45 -47 -40 -75 -81 0
43 46 48 40 75 82 0
-48 43 46 40 77 0
-46 43 48 41 79 0
-46 -48 43 -44 -82 0
-43 46 48 44 82 0
-43 -48 46 -41 -79 0
-43 -46 48 -40 -77 0
-43 -46 -48 -40 -75 -82 0
43 46 49 40 76 83 0
-49 43 46 40 77 0
-46 43 49 42 80 0
-46 -49 43 -45 -83 0
-43 46 49 45 83 0
-43 -49 46 -42 -80 0
-43 -46 49 -40 -77 0
-43 -46 -49 -40 -76 -83 0
43 48 49 41 78 84 0
-49 43 48 41 79 0
-48 43 49 42 80 0
-48 -49 43 -47 -84 0
-43 48 49 47 84 0
-43 -49 48 -42 -80 0
-43 -48 49 -41 -79 0
-43 -48 -49 -41 -78 -84 0
46 48 49 44 81 84 0
-49 46 48 44 82 0
-48 46 49 45 83 0
-48 -49 46 -47 -84 0
-46 48 49 47 84 0
-46 -49 48 -45 -83 0
-46 -48 49 -44 -82 0
-46 -48 -49 -44 -81 -84 0
52 56 59 50 65 75 0
-59 52 56 50 66 0
-56 52 59 51 69 0
-56 -59 52 -55 -75 0
-52 56 59 55 75 0
-52 -59 56 -51 -69 0
-52 -56 59 -50 -66 0
-52 -56 -59 -50 -65 -75 0
53 57 60 50 65 76 0
-60 53 57 50 67 0
-57 53 60 51 70 0
-57 -60 53 -55 -76 0
-53 57 60 55 76 0
-53 -60 57 -51 -70 0
-53 -57 60 -50 -67 0
-53 -57 -60 -50 -65 -76 0
54 58 61 50 65 77 0
-61 54 58 50 68 0
-58 54 61 51 71 0
-58 -61 54 -55 -77 0
-54 58 61 55 77 0
-54 -61 58 -51 -71 0
-54 -58 61 -50 -68 0
-54 -58 -61 -50 -65 -77 0
53 57 62 50 66 78 0
-62 53 57 50 67 0
-57 53 62 52 72 0
-57 -62 53 -56 -78 0
-53 57 62 56 78 0
-53 -62 57 -52 -72 0
-53 -57 62 -50 -67 0
-53 -57 -62 -50 -66 -78 0
54 58 63 50 66 79 0
-63 54 58 50 68 0
-58 54 63 52 73 0
-58 -63 54 -56 -79 0
-54 58 63 56 79 0
-54 -63 58 -52 -73 0
-54 -58 63 -50 -68 0
-54 -58 -63 -50 -66 -79 0
54 58 64 50 67 80 0
-64 54 58 50 68 0
-58 54 64 53 74 0
-58 -64 54 -57 -80 0
-54 58 64 57 80 0
-54 -64 58 -53 -74 0
-54 -58 64 -50 -68 0
-54 -58 -64 -50 -67 -80 0
53 60 62 51 69 81 0
-62 53 60 51 70 0
-60 53 62 52 72 0
-60 -62 53 -59 -81 0
-53 60 62 59 81 0
-53 -62 60 -52 -72 0
-53 -60 62 -51 -70 0
-53 -60 -62 -51 -69 -81 0
54 61 63 51 69 82 0
-63 54 61 51 71 0
-61 54 63 52 73 0
-61 -63 54 -59 -82 0
-54 61 63 59 82 0
-54 -63 61 -52 -73 0
-54 -61 63 -51 -71 0
-54 -61 -63 -51 -69 -82 0
54 61 64 51 70 83 0
-64 54 61 51 71 0
-61 54 64 53 74 0
-61 -64 54 -60 -83 0
-54 61 64 60 83 0
-54 -64 61 -53 -74 0
-54 -61 64 -51 -71 0
-54 -61 -64 -51 -70 -83 0
54 63 64 52 72 84 0
-64 54 63 52 73 0
-63 54 64 53 74 0
-63 -64 54 -62 -84 0
-54 63 64 62 84 0
-54 -64 63 -53 -74 0
-54 -63 64 -52 -73 0
-54 -63 -64 -52 -72 -84 0
57 60 62 55 75 81 0
-62 57 60 55 76 0
-60 57 62 56 78 0
-60 -62 57 -59 -81 0
-57 60 62 59 81 0
-57 -62 60 -56 -78 0
-57 -60 62 -55 -76 0
-57 -60 -62 -55 -75 -81 0
58 61 63 55 75 82 0
-63 58 61 55 77 0
-61 58 63 56 79 0
-61 -63 58 -59 -82 0
-58 61 63 59 82 0
-58 -63 61 -56 -79 0
-58 -61 63 -55 -77 0
-58 -61 -63 -55 -75 -82 0
58 61 64 55 76 83 0
-64 58 61 55 77 0
-61 58 64 57 80 0
-61 -64 58 -60 -83 0
-58 61 64 60 83 0
-58 -64 61 -57 -80 0
-58 -61 64 -55 -77 0
-58 -61 -64 -55 -76 -83 0
58 63 64 56 78 84 0
-64 58 63 56 79 0
-63 58 64 57 80 0
-63 -64 58 -62 -84 0
-58 63 64 62 84 0
-58 -64 63 -57 -80 0
-58 -63 64 -56 -79 0
-58 -63 -64 -56 -78 -84 0
61 63 64 59 81 84 0
-64 61 63 59 82 0
-63 61 64 60 83 0
-63 -64 61 -62 -84 0
-61 63 64 62 84 0
-61 -64 63 -60 -83 0
-61 -63 64 -59 -82 0
-61 -63 -64 -59 -81 -84 0
67 70 72 65 75 81 0
-72 67 70 65 76 0
-70 67 72 66 78 0
-70 -72 67 -69 -81 0
-67 70 72 69 81 0
-67 -72 70 -66 -78 0
-67 -70 72 -65 -76 0
-67 -70 -72 -65 -75 -81 0
68 71 73 65 75 82 0
-73 68 71 65 77 0
-71 68 73 66 79 0
-71 -73 68 -69 -82 0
-68 71 73 69 82 0
-68 -73 71 -66 -79 0
-68 -71 73 -65 -77 0
-68 -71 -73 -65 -75 -82 0
68 71 74 65 76 83 0
-74 68 71 65 77 0
-71 68 74 67 80 0
-71 -74 68 -70 -83 0
-68 71 74 70 83 0
-68 -74 71 -67 -80 0
-68 -71 74 -65 -77 0
-68 -71 -74 -65 -76 -83 0
68 73 74 66 78 84 0
-74 68 73 66 79 0
-73 68 74 67 80 0
-73 -74 68 -72 -84 0
-68 73 74 72 84 0
-68 -74 73 -67 -80 0
-68 -73 74 -66 -79 0
-68 -73 -74 -66 -78 -84 0
71 73 74 69 81 84 0
-74 71 73 69 82 0
-73 71 74 70 83 0
-73 -74 71 -72 -84 0
-71 73 74 72 84 0
-71 -74 73 -70 -83 0
-71 -73 74 -69 -82 0
-71 -73 -74 -69 -81 -84 0
77 79 80 75 81 84 0
-80 77 79 75 82 0
-79 77 80 76 83 0
-79 -80 77 -78 -84 0
-77 79 80 78 84 0
-77 -80 79 -76 -83 0
-77 -79 80 -75 -82 0
-77 -79 -80 -75 -81 -84 0
